set VV := 0 1 2 3 4 5 6 7 8 9 10 11 12 13 14 15 16 17 18 19 20 21 22 23 24 25 26 27 28 29 30 31 32 33 34 35 36 37 38 39 40 41 42 43 44 45 46 ;
set VS := 0 1 2 3 4 5 6 7 8 9 10 11 12 13 14 15 16 17 18 19 20 21 22 23 24 25 26 27 28 29 30 31 32 33 34 35 36 37 38 39 40 41 42 43 44 45 46 47 48 49 50 51 52 53 54 55 56 57 58 59 60 61 62 63 64 65 66 67 68 69 70 71 72 73 74 75 76 77 78 79 80 81 82 83 84 85 86 87 88 89 90 91 92 93 94 95 96 97 98 ;
param cv := 
0 23
1 13
2 19
3 10
4 12
5 21
6 11
7 12
8 12
9 14
10 18
11 19
12 14
13 23
14 17
15 10
16 23
17 17
18 20
19 15
20 10
21 17
22 24
23 17
24 13
25 18
26 20
27 17
28 18
29 19
30 14
31 11
32 18
33 25
34 17
35 13
36 18
37 25
38 10
39 25
40 10
41 12
42 17
43 13
44 19
45 22
46 13
;
param cs := 
0 39
1 25
2 30
3 27
4 37
5 28
6 28
7 34
8 39
9 30
10 32
11 22
12 39
13 40
14 34
15 40
16 29
17 37
18 39
19 38
20 38
21 39
22 34
23 40
24 22
25 40
26 40
27 29
28 40
29 36
30 33
31 34
32 28
33 33
34 20
35 25
36 32
37 33
38 21
39 32
40 25
41 24
42 20
43 21
44 30
45 30
46 40
47 32
48 36
49 24
50 28
51 40
52 37
53 33
54 36
55 20
56 37
57 40
58 26
59 23
60 38
61 20
62 39
63 38
64 22
65 33
66 20
67 38
68 26
69 34
70 28
71 26
72 36
73 28
74 31
75 29
76 29
77 22
78 21
79 31
80 28
81 26
82 23
83 21
84 40
85 33
86 33
87 35
88 34
89 34
90 22
91 21
92 38
93 30
94 23
95 31
96 24
97 25
98 30
;
param bv:	 0 1 2 3 4 5 6 7 8 9 10 11 12 13 14 15 16 17 18 19 20 21 22 23 24 25 26 27 28 29 30 31 32 33 34 35 36 37 38 39 40 41 42 43 44 45 46 := 
		0 0 21 0 0 0 0 0 0 0 0 0 0 0 0 0 10 0 19 0 0 22 0 0 0 0 0 22 0 0 0 0 0 0 0 0 19 0 0 10 0 23 0 0 0 0 0 0 
		1 0 0 0 0 22 0 0 0 0 0 0 0 0 24 0 0 0 0 0 17 19 0 0 0 0 0 0 0 0 0 0 23 0 0 0 0 14 19 0 0 15 0 0 0 22 0 0 
		2 0 0 0 0 19 0 0 0 0 0 0 0 0 0 0 0 0 0 18 0 0 0 0 0 0 0 0 0 0 0 0 0 0 0 25 0 0 0 0 0 0 0 0 0 0 0 0 
		3 0 0 0 0 0 0 0 0 0 0 0 0 24 0 0 0 0 21 0 0 0 18 0 0 0 0 0 0 0 0 0 0 0 0 0 0 0 0 0 0 0 0 17 0 0 22 0 
		4 0 0 0 0 0 0 15 0 0 0 0 0 0 21 0 0 0 0 0 0 0 0 0 0 0 0 0 0 0 0 0 0 0 0 0 0 0 0 0 0 0 0 0 13 0 0 0 
		5 0 0 0 0 0 0 0 0 0 24 0 0 0 0 0 0 0 0 0 16 0 0 15 0 0 0 0 0 0 0 0 0 25 0 0 15 0 23 10 25 0 17 0 0 0 0 20 
		6 0 0 0 0 0 0 0 22 0 0 0 0 0 0 0 0 0 0 0 0 0 0 0 0 0 0 0 0 0 0 0 0 0 0 0 0 0 0 0 0 0 0 0 0 0 0 0 
		7 0 0 0 0 0 0 0 0 0 0 25 0 0 17 0 0 0 0 0 0 0 0 0 0 0 0 0 14 0 0 0 0 0 0 0 0 0 0 0 0 0 0 0 0 0 0 0 
		8 0 0 0 0 0 0 0 0 0 0 0 0 11 0 0 0 0 0 0 18 0 0 0 0 16 12 0 0 0 0 0 0 0 0 0 0 19 11 0 20 0 0 0 0 0 0 0 
		9 0 0 0 0 0 0 0 0 0 0 0 0 0 0 0 0 0 0 0 0 0 0 20 0 0 0 0 0 0 0 0 0 0 0 0 0 0 0 17 0 0 10 0 0 0 0 0 
		10 0 0 0 0 0 0 0 0 0 0 0 0 0 0 0 0 0 0 0 0 0 0 0 0 0 0 0 12 0 0 0 0 0 0 0 13 0 0 0 0 0 0 0 0 0 0 0 
		11 0 0 0 0 0 0 0 0 0 0 0 0 0 0 0 0 23 0 0 0 0 0 0 0 0 0 0 0 0 0 0 0 0 15 0 0 0 12 0 0 0 12 0 0 0 13 0 
		12 0 0 0 0 0 0 0 0 0 0 0 0 0 0 0 0 0 0 0 0 0 0 0 0 0 0 0 0 0 0 0 0 0 0 0 0 0 0 0 0 10 0 0 0 0 0 0 
		13 0 0 0 0 0 0 0 0 0 0 0 0 0 0 0 0 0 0 0 0 0 0 0 0 20 0 16 0 0 0 0 0 0 0 0 0 0 0 0 0 0 0 20 0 0 0 0 
		14 0 0 0 0 0 0 0 0 0 0 0 0 0 0 0 0 0 0 0 15 0 0 0 15 0 0 0 0 0 0 21 24 0 0 0 0 0 0 0 0 0 0 0 0 12 18 18 
		15 0 0 0 0 0 0 0 0 0 0 0 0 0 0 0 0 11 0 0 0 22 12 0 0 0 0 0 0 0 0 0 0 0 0 0 0 23 0 0 10 0 0 0 0 0 0 0 
		16 0 0 0 0 0 0 0 0 0 0 0 0 0 0 0 0 0 17 0 0 0 24 0 0 0 0 0 0 0 0 0 0 0 0 0 0 0 0 0 0 0 0 0 0 0 0 0 
		17 0 0 0 0 0 0 0 0 0 0 0 0 0 0 0 0 0 0 0 0 0 25 0 0 0 0 0 0 0 0 0 0 0 0 0 0 0 0 0 0 0 0 0 0 0 0 0 
		18 0 0 0 0 0 0 0 0 0 0 0 0 0 0 0 0 0 0 0 0 20 0 0 0 0 0 0 0 0 0 0 0 0 24 0 0 0 0 0 0 0 0 0 0 0 0 0 
		19 0 0 0 0 0 0 0 0 0 0 0 0 0 0 0 0 0 0 0 0 0 0 0 0 0 0 0 0 0 0 0 0 0 0 0 13 0 0 0 20 0 0 0 0 0 0 0 
		20 0 0 0 0 0 0 0 0 0 0 0 0 0 0 0 0 0 0 0 0 0 0 0 18 0 0 13 0 0 0 0 0 0 17 14 15 20 11 19 0 0 0 0 0 0 0 22 
		21 0 0 0 0 0 0 0 0 0 0 0 0 0 0 0 0 0 0 0 0 0 0 20 21 0 0 0 0 0 0 0 0 0 0 13 0 0 0 0 0 0 0 0 0 0 0 0 
		22 0 0 0 0 0 0 0 0 0 0 0 0 0 0 0 0 0 0 0 0 0 0 0 13 0 0 0 23 0 23 0 0 0 0 0 0 0 0 0 0 0 0 0 18 21 0 0 
		23 0 0 0 0 0 0 0 0 0 0 0 0 0 0 0 0 0 0 0 0 0 0 0 0 0 0 0 11 0 0 0 0 0 0 0 0 0 11 20 0 0 15 0 0 18 20 0 
		24 0 0 0 0 0 0 0 0 0 0 0 0 0 0 0 0 0 0 0 0 0 0 0 0 0 0 0 0 0 0 0 0 0 0 0 0 0 0 0 15 0 22 0 0 0 21 0 
		25 0 0 0 0 0 0 0 0 0 0 0 0 0 0 0 0 0 0 0 0 0 0 0 0 0 0 0 0 0 0 0 0 0 0 0 0 0 0 0 24 0 0 0 0 0 0 17 
		26 0 0 0 0 0 0 0 0 0 0 0 0 0 0 0 0 0 0 0 0 0 0 0 0 0 0 0 0 0 24 21 10 0 18 0 0 0 18 0 0 0 0 0 17 0 0 0 
		27 0 0 0 0 0 0 0 0 0 0 0 0 0 0 0 0 0 0 0 0 0 0 0 0 0 0 0 0 0 0 0 14 0 0 0 0 0 0 0 0 0 0 0 0 0 0 11 
		28 0 0 0 0 0 0 0 0 0 0 0 0 0 0 0 0 0 0 0 0 0 0 0 0 0 0 0 0 0 0 0 0 0 0 0 0 0 0 0 0 0 0 0 0 16 0 0 
		29 0 0 0 0 0 0 0 0 0 0 0 0 0 0 0 0 0 0 0 0 0 0 0 0 0 0 0 0 0 0 17 0 0 0 23 22 0 0 0 0 0 0 25 19 0 0 0 
		30 0 0 0 0 0 0 0 0 0 0 0 0 0 0 0 0 0 0 0 0 0 0 0 0 0 0 0 0 0 0 0 0 0 0 0 24 0 0 0 0 0 0 0 0 0 0 0 
		31 0 0 0 0 0 0 0 0 0 0 0 0 0 0 0 0 0 0 0 0 0 0 0 0 0 0 0 0 0 0 0 0 0 20 0 0 11 0 0 0 0 0 0 19 0 0 0 
		32 0 0 0 0 0 0 0 0 0 0 0 0 0 0 0 0 0 0 0 0 0 0 0 0 0 0 0 0 0 0 0 0 0 0 0 0 0 0 0 0 0 22 0 0 0 0 0 
		33 0 0 0 0 0 0 0 0 0 0 0 0 0 0 0 0 0 0 0 0 0 0 0 0 0 0 0 0 0 0 0 0 0 0 0 21 0 0 0 0 0 0 0 0 0 0 0 
		34 0 0 0 0 0 0 0 0 0 0 0 0 0 0 0 0 0 0 0 0 0 0 0 0 0 0 0 0 0 0 0 0 0 0 0 0 0 0 0 0 0 0 0 16 0 0 0 
		35 0 0 0 0 0 0 0 0 0 0 0 0 0 0 0 0 0 0 0 0 0 0 0 0 0 0 0 0 0 0 0 0 0 0 0 0 21 0 0 0 0 0 0 0 0 0 0 
		36 0 0 0 0 0 0 0 0 0 0 0 0 0 0 0 0 0 0 0 0 0 0 0 0 0 0 0 0 0 0 0 0 0 0 0 0 0 0 0 0 0 0 0 0 0 0 0 
		37 0 0 0 0 0 0 0 0 0 0 0 0 0 0 0 0 0 0 0 0 0 0 0 0 0 0 0 0 0 0 0 0 0 0 0 0 0 0 0 0 0 11 0 0 0 0 10 
		38 0 0 0 0 0 0 0 0 0 0 0 0 0 0 0 0 0 0 0 0 0 0 0 0 0 0 0 0 0 0 0 0 0 0 0 0 0 0 0 0 0 0 0 0 0 0 24 
		39 0 0 0 0 0 0 0 0 0 0 0 0 0 0 0 0 0 0 0 0 0 0 0 0 0 0 0 0 0 0 0 0 0 0 0 0 0 0 0 0 0 0 0 0 0 0 0 
		40 0 0 0 0 0 0 0 0 0 0 0 0 0 0 0 0 0 0 0 0 0 0 0 0 0 0 0 0 0 0 0 0 0 0 0 0 0 0 0 0 0 0 0 0 0 11 0 
		41 0 0 0 0 0 0 0 0 0 0 0 0 0 0 0 0 0 0 0 0 0 0 0 0 0 0 0 0 0 0 0 0 0 0 0 0 0 0 0 0 0 0 0 0 0 0 24 
		42 0 0 0 0 0 0 0 0 0 0 0 0 0 0 0 0 0 0 0 0 0 0 0 0 0 0 0 0 0 0 0 0 0 0 0 0 0 0 0 0 0 0 0 0 0 0 0 
		43 0 0 0 0 0 0 0 0 0 0 0 0 0 0 0 0 0 0 0 0 0 0 0 0 0 0 0 0 0 0 0 0 0 0 0 0 0 0 0 0 0 0 0 0 0 0 0 
		44 0 0 0 0 0 0 0 0 0 0 0 0 0 0 0 0 0 0 0 0 0 0 0 0 0 0 0 0 0 0 0 0 0 0 0 0 0 0 0 0 0 0 0 0 0 0 0 
		45 0 0 0 0 0 0 0 0 0 0 0 0 0 0 0 0 0 0 0 0 0 0 0 0 0 0 0 0 0 0 0 0 0 0 0 0 0 0 0 0 0 0 0 0 0 0 0 
		46 0 0 0 0 0 0 0 0 0 0 0 0 0 0 0 0 0 0 0 0 0 0 0 0 0 0 0 0 0 0 0 0 0 0 0 0 0 0 0 0 0 0 0 0 0 0 0 
;
param bs:	 0 1 2 3 4 5 6 7 8 9 10 11 12 13 14 15 16 17 18 19 20 21 22 23 24 25 26 27 28 29 30 31 32 33 34 35 36 37 38 39 40 41 42 43 44 45 46 47 48 49 50 51 52 53 54 55 56 57 58 59 60 61 62 63 64 65 66 67 68 69 70 71 72 73 74 75 76 77 78 79 80 81 82 83 84 85 86 87 88 89 90 91 92 93 94 95 96 97 98 := 
		0 0 0 0 0 0 0 0 0 0 0 0 0 0 0 26 0 0 0 33 0 0 0 0 36 0 37 0 0 0 0 0 0 0 0 0 29 25 0 0 0 29 0 0 0 38 0 39 0 0 0 29 0 39 0 0 0 0 0 0 0 37 0 0 0 0 0 0 0 37 33 0 28 0 36 0 0 0 0 0 0 0 0 0 0 0 0 0 0 0 0 0 0 0 0 35 0 21 0 0 
		1 0 0 0 0 0 0 0 0 0 0 0 0 0 38 0 24 0 21 24 0 0 0 0 0 0 0 0 0 0 26 0 0 0 0 0 0 25 0 0 0 0 0 0 0 27 0 23 0 0 38 0 0 0 0 0 0 39 0 0 0 0 0 0 0 0 0 0 0 0 22 0 0 0 0 0 0 0 0 0 0 0 0 0 0 0 0 0 22 0 0 0 0 0 0 0 0 0 0 0 
		2 0 0 0 0 0 0 0 0 0 0 0 0 0 0 0 0 0 0 0 0 22 0 0 0 0 0 0 0 0 0 0 0 0 0 0 0 0 0 0 0 0 34 0 0 0 0 0 0 0 24 0 0 0 0 0 34 0 0 0 25 0 0 0 0 0 0 0 0 29 0 0 23 0 0 0 0 0 0 0 0 0 0 0 35 0 20 35 0 0 0 0 0 38 0 0 0 0 0 0 
		3 0 0 0 0 0 0 0 0 0 0 0 0 0 0 0 25 0 0 0 0 0 0 0 0 0 22 0 0 0 0 0 0 0 0 29 0 0 35 40 27 0 0 0 0 0 0 0 34 35 0 0 34 0 0 0 0 0 0 0 0 0 0 0 0 0 30 24 0 0 37 0 0 0 0 0 0 0 0 0 0 0 0 0 0 26 0 0 0 24 0 0 0 0 0 0 0 0 0 0 
		4 0 0 0 0 0 0 0 0 0 0 0 0 0 0 0 0 0 0 0 0 0 35 0 36 0 0 0 0 0 0 0 0 0 0 0 39 21 0 0 0 0 29 21 0 25 31 29 0 0 40 0 0 0 0 0 0 0 0 0 35 30 0 0 0 0 0 0 0 0 0 0 39 0 0 0 0 0 0 35 0 0 0 0 0 0 0 0 0 0 0 0 0 0 0 25 0 0 0 27 
		5 0 0 0 0 0 0 0 0 0 0 0 0 35 0 0 29 0 0 0 0 0 0 0 0 0 0 0 0 0 0 0 0 0 0 0 0 36 0 0 0 40 0 22 0 0 0 0 34 0 0 0 0 0 0 0 0 0 0 0 0 0 0 0 0 0 0 29 0 0 0 0 0 0 0 0 0 0 0 0 0 0 0 0 0 0 0 40 21 0 0 0 23 0 0 0 0 0 0 0 
		6 0 0 0 0 0 0 0 0 0 0 0 0 0 0 0 0 0 21 0 0 38 0 0 0 0 0 0 0 0 0 0 0 0 0 0 0 0 0 0 0 0 0 0 0 0 32 0 0 0 0 0 0 0 0 0 26 0 0 0 0 40 0 0 0 0 0 0 0 0 0 0 0 0 0 0 0 0 0 0 0 0 0 0 0 0 36 0 39 40 37 0 0 0 0 0 0 0 0 0 
		7 0 0 0 0 0 0 0 0 0 0 0 0 27 0 0 0 0 0 0 0 0 0 0 23 0 30 0 0 0 0 0 0 24 0 0 0 0 0 0 0 0 0 0 0 0 0 0 0 0 0 0 0 0 0 35 0 0 0 0 0 0 0 0 0 32 0 0 0 0 0 0 0 0 0 37 0 0 0 0 37 0 21 0 0 24 0 0 27 0 0 0 0 0 0 0 0 0 23 0 
		8 0 0 0 0 0 0 0 0 0 0 0 0 0 33 0 0 0 0 0 25 0 31 0 0 0 0 0 0 0 0 0 0 0 0 0 0 0 0 0 0 37 0 0 0 0 0 0 0 0 0 0 0 0 22 0 0 0 0 0 33 0 0 0 0 0 0 0 0 0 0 0 0 29 0 0 0 0 0 32 0 0 0 0 0 0 0 0 0 26 22 0 0 0 0 0 0 20 0 0 
		9 0 0 0 0 0 0 0 0 0 0 0 0 0 0 0 0 0 0 0 0 0 40 0 0 35 0 0 0 24 0 0 0 0 0 0 0 0 0 0 0 0 0 0 35 0 0 36 21 31 0 0 0 0 0 0 0 0 0 33 0 0 0 0 0 0 0 0 0 0 0 0 0 0 0 0 0 0 38 0 0 0 0 0 0 0 0 32 24 0 40 0 0 0 37 0 27 0 0 32 
		10 0 0 0 0 0 0 0 0 0 0 0 0 0 0 0 0 0 0 0 0 0 0 0 0 0 0 0 0 28 0 0 0 0 0 0 34 25 0 0 25 0 0 0 0 0 23 0 0 0 0 20 0 0 0 0 0 26 0 30 0 32 0 30 0 0 0 0 0 0 0 0 0 0 0 0 0 21 0 0 0 0 0 0 0 0 0 0 0 0 0 0 0 0 0 0 0 0 0 0 
		11 0 0 0 0 0 0 0 0 0 0 0 0 0 0 0 0 0 0 0 0 0 0 0 0 0 0 0 0 0 0 0 0 26 0 0 0 0 0 0 0 0 0 0 0 0 0 0 0 29 0 0 0 0 0 0 0 0 34 0 0 25 0 0 0 0 0 0 0 0 0 0 0 0 0 30 30 0 0 0 0 0 0 0 0 0 0 0 0 0 0 0 0 0 0 0 0 0 0 0 
		12 0 0 0 0 0 35 0 27 0 0 0 0 0 0 0 40 28 0 0 0 31 34 0 0 32 0 0 0 27 0 0 0 20 0 0 0 0 0 0 37 0 36 38 0 0 0 0 26 0 0 0 0 0 0 0 0 0 40 0 0 0 0 0 0 40 0 0 0 0 0 0 0 0 0 0 0 0 0 0 0 0 0 0 24 0 0 0 0 0 25 0 0 0 0 0 0 0 0 0 
		13 0 38 0 0 0 0 0 0 33 0 0 0 0 0 0 0 0 0 0 28 21 0 0 0 0 0 0 0 0 0 0 39 0 0 0 0 0 0 0 0 0 0 0 0 39 0 0 31 0 0 0 0 0 0 0 0 0 0 28 0 0 0 0 0 0 0 0 0 0 0 0 0 0 0 0 0 0 0 0 0 0 0 0 0 0 0 0 0 0 38 0 0 0 0 0 0 34 0 0 
		14 26 0 0 0 0 0 0 0 0 0 0 0 0 0 0 0 0 25 0 0 0 29 0 0 0 0 0 0 0 0 0 21 0 0 0 0 29 0 0 37 0 0 0 0 0 0 0 32 0 0 0 0 0 0 0 0 0 0 0 0 20 0 0 0 0 0 0 0 0 0 0 0 0 0 0 0 0 0 0 0 0 0 0 0 0 24 0 0 21 0 0 0 0 29 0 0 20 0 0 
		15 0 24 0 25 0 29 0 0 0 0 0 0 40 0 0 0 0 0 0 32 38 0 0 0 0 0 0 0 34 0 0 0 0 39 0 23 0 0 0 0 21 0 0 0 0 0 0 0 0 0 0 0 0 0 0 31 0 0 39 0 0 0 0 0 0 0 0 0 0 0 0 0 0 0 0 0 0 0 0 0 0 0 0 0 0 0 20 29 24 0 0 0 0 0 0 0 0 0 0 
		16 0 0 0 0 0 0 0 0 0 0 0 0 28 0 0 0 0 0 0 0 0 35 0 0 0 31 0 0 0 0 0 0 0 0 0 0 0 0 0 0 31 0 0 0 0 0 0 0 0 0 0 0 0 0 0 0 0 25 0 0 0 35 0 0 0 0 0 0 0 0 0 0 0 0 0 0 0 0 0 0 0 0 0 0 0 0 0 23 0 0 0 0 34 0 0 32 0 0 0 
		17 0 21 0 0 0 0 21 0 0 0 0 0 0 0 25 0 0 0 0 0 0 0 0 0 0 0 0 0 0 0 0 0 0 0 0 0 0 0 0 0 0 0 0 0 0 0 0 0 0 0 26 0 0 0 0 0 39 0 0 0 0 0 0 0 0 0 0 0 0 0 0 0 0 0 0 0 0 0 0 0 0 0 0 0 0 0 25 0 0 0 0 0 0 0 0 0 20 0 0 
		18 33 24 0 0 0 0 0 0 0 0 0 0 0 0 0 0 0 0 0 30 0 35 37 0 0 0 0 0 0 0 0 0 0 0 0 30 0 0 0 0 0 0 0 0 0 0 31 0 0 0 0 0 0 31 0 0 0 0 0 0 0 27 21 0 0 0 0 0 0 0 0 0 0 0 0 0 35 0 0 0 0 0 0 0 0 0 26 0 0 0 0 0 0 32 26 0 37 0 0 
		19 0 0 0 0 0 0 0 0 25 0 0 0 0 28 0 32 0 0 30 0 0 32 0 0 0 38 0 0 0 0 39 0 0 0 0 31 0 0 0 0 20 0 0 0 0 0 0 0 0 0 0 0 0 0 0 0 0 0 0 0 0 0 27 0 0 0 0 0 35 0 0 0 0 0 0 0 27 0 0 0 0 0 0 0 0 0 0 0 0 0 0 0 0 27 0 0 0 0 0 
		20 0 0 22 0 0 0 38 0 0 0 0 0 31 21 0 38 0 0 0 0 0 0 0 0 0 0 0 0 0 25 23 0 0 35 0 0 0 35 0 0 0 0 0 26 0 25 26 0 0 0 0 0 0 0 0 0 0 0 0 0 0 0 0 0 0 0 28 0 0 38 0 0 0 0 0 0 0 0 0 0 0 0 0 0 0 0 0 0 0 30 0 0 0 0 0 0 0 0 0 
		21 0 0 0 0 35 0 0 0 31 40 0 0 34 0 29 0 35 0 35 32 0 0 0 0 0 0 0 0 0 0 22 0 0 0 0 0 0 0 0 0 0 0 38 29 0 0 0 0 0 0 0 27 0 0 0 0 0 0 0 0 0 0 0 38 0 0 0 0 0 0 0 0 0 0 0 21 0 0 0 0 0 0 0 0 0 0 0 0 0 0 0 0 30 0 0 0 0 0 29 
		22 0 0 0 0 0 0 0 0 0 0 0 0 0 0 0 0 0 0 37 0 0 0 0 0 0 0 0 37 36 0 0 0 0 0 0 0 0 0 0 0 0 0 0 0 0 0 0 0 0 0 0 0 0 0 0 0 0 0 0 0 0 0 0 0 0 0 26 0 0 0 0 0 0 0 0 0 0 0 0 0 0 0 0 0 0 0 0 0 0 0 0 0 0 0 0 0 0 0 0 
		23 36 0 0 0 36 0 0 23 0 0 0 0 0 0 0 0 0 0 0 0 0 0 0 0 0 32 0 0 0 0 0 0 0 0 0 0 0 0 0 0 0 0 40 0 0 0 0 0 0 21 0 0 0 0 0 0 0 0 0 0 0 0 0 0 0 0 0 0 0 0 0 28 0 0 0 0 30 0 0 0 0 0 0 27 0 0 0 0 0 0 0 0 0 0 0 0 25 0 35 
		24 0 0 0 0 0 0 0 0 0 35 0 0 32 0 0 0 0 0 0 0 0 0 0 0 0 0 0 0 0 0 21 36 0 0 0 20 0 0 0 0 0 0 0 0 0 0 0 0 0 0 0 0 0 0 0 0 0 0 0 0 0 0 0 0 0 0 0 0 0 0 0 0 0 0 0 0 0 0 38 0 0 0 0 0 24 0 0 0 0 0 0 0 0 0 0 0 0 0 0 
		25 37 0 0 22 0 0 0 30 0 0 0 0 0 0 0 0 31 0 0 38 0 0 0 32 0 0 0 0 0 0 0 0 0 0 0 0 0 0 0 0 0 0 24 0 0 0 0 0 0 0 0 33 0 26 29 0 0 0 0 22 23 0 0 0 0 0 0 0 0 0 0 0 0 39 0 0 0 0 0 0 0 0 0 0 39 0 0 23 0 0 0 0 0 0 0 0 0 0 32 
		26 0 0 0 0 0 0 0 0 0 0 0 0 0 0 0 0 0 0 0 0 0 0 0 0 0 0 0 0 0 0 0 0 0 0 0 0 0 0 26 0 0 0 0 0 0 0 0 0 36 0 0 0 0 0 0 0 0 0 0 0 0 0 0 25 0 0 0 0 0 0 0 0 0 0 34 0 27 0 0 0 0 0 0 0 26 0 0 0 0 0 0 0 31 0 0 0 0 0 0 
		27 0 0 0 0 0 0 0 0 0 0 0 0 0 0 0 0 0 0 0 0 0 0 37 0 0 0 0 0 0 0 0 0 0 0 0 0 0 0 0 0 0 0 0 0 0 0 0 0 0 0 0 0 0 0 0 0 0 0 0 34 0 0 0 0 0 0 27 0 0 0 0 0 0 0 0 0 0 0 0 0 37 0 22 0 0 0 0 0 0 0 0 0 0 0 0 0 0 0 0 
		28 0 0 0 0 0 0 0 0 0 24 28 0 27 0 0 34 0 0 0 0 0 0 36 0 0 0 0 0 0 0 0 0 36 0 0 0 0 0 0 29 24 0 0 0 0 0 0 38 0 0 0 0 0 0 0 0 0 0 0 0 0 0 0 0 30 0 0 0 0 0 0 32 22 0 0 0 0 0 0 0 0 0 30 0 0 0 0 33 0 34 0 0 22 0 0 22 36 0 20 
		29 0 26 0 0 0 0 0 0 0 0 0 0 0 0 0 0 0 0 0 0 25 0 0 0 0 0 0 0 0 0 0 0 0 28 0 0 0 0 0 0 0 0 0 40 0 0 0 33 0 0 0 0 0 0 0 0 0 35 33 0 0 0 0 23 34 0 0 0 0 0 0 0 0 0 0 0 0 0 0 0 0 0 29 0 0 0 0 0 0 0 0 0 25 0 0 0 0 30 0 
		30 0 0 0 0 0 0 0 0 0 0 0 0 0 0 0 0 0 0 0 39 23 22 0 0 21 0 0 0 0 0 0 31 0 22 0 0 0 0 0 0 33 26 0 0 20 0 26 0 0 0 30 0 0 0 0 0 0 0 0 0 35 0 0 0 0 0 0 0 28 0 0 0 0 0 0 0 0 0 0 0 0 0 0 0 0 0 0 0 0 0 26 0 0 0 0 0 0 0 0 
		31 0 0 0 0 0 0 0 0 0 0 0 0 0 39 21 0 0 0 0 0 0 0 0 0 36 0 0 0 0 0 31 0 0 0 0 0 36 0 0 0 0 0 0 0 23 0 0 0 0 0 0 0 0 0 22 0 26 0 0 0 0 0 25 0 0 28 0 0 24 0 0 0 0 0 0 0 32 0 0 0 0 0 0 0 0 0 0 0 0 0 0 0 33 0 0 0 0 0 0 
		32 0 0 0 0 0 0 0 24 0 0 0 26 20 0 0 0 0 0 0 0 0 0 0 0 0 0 0 0 36 0 0 0 0 0 0 0 0 0 0 0 0 0 0 0 0 0 0 0 0 0 0 0 0 0 0 0 0 0 0 0 0 38 0 32 22 40 0 0 0 0 0 0 0 0 0 0 37 0 0 0 0 0 0 38 0 0 40 0 0 0 0 0 0 0 0 0 0 0 0 
		33 0 0 0 0 0 0 0 0 0 0 0 0 0 0 0 39 0 0 0 0 35 0 0 0 0 0 0 0 0 28 22 0 0 0 0 0 0 0 0 0 0 0 0 0 0 34 0 0 0 0 0 0 0 38 0 0 0 0 0 33 0 0 0 0 0 0 39 0 0 0 0 0 0 0 0 0 0 0 0 0 0 0 0 32 0 0 0 26 0 0 35 0 0 30 0 0 0 0 0 
		34 0 0 0 29 0 0 0 0 0 0 0 0 0 0 0 0 0 0 0 0 0 0 0 0 0 0 0 0 0 0 0 0 0 0 0 0 0 0 0 0 0 0 0 0 0 0 0 0 0 0 0 0 0 0 0 0 0 0 0 0 0 0 0 25 0 0 0 0 39 0 0 0 0 0 0 0 0 0 0 0 22 0 0 0 0 0 0 0 0 0 0 0 0 0 0 40 0 0 0 
		35 29 0 0 0 39 0 0 0 0 0 34 0 0 0 0 23 0 0 30 31 0 0 0 0 20 0 0 0 0 0 0 0 0 0 0 0 0 0 0 32 0 0 0 0 0 0 0 0 0 40 0 0 38 0 0 0 0 27 0 0 0 35 20 0 0 38 0 0 0 0 0 0 0 0 0 0 36 20 0 0 0 0 0 0 0 0 40 0 0 0 0 0 0 0 0 0 0 0 0 
		36 25 25 0 0 21 36 0 0 0 0 25 0 0 0 29 0 0 0 0 0 0 0 0 0 0 0 0 0 0 0 0 36 0 0 0 0 0 0 0 0 0 0 0 0 0 0 0 40 0 0 0 0 0 0 0 0 0 0 0 0 0 0 29 0 0 0 0 0 0 0 0 33 0 23 0 0 0 0 0 0 0 0 0 40 0 0 0 0 0 0 0 0 0 0 0 21 0 0 0 
		37 0 0 0 35 0 0 0 0 0 0 0 0 0 0 0 0 0 0 0 0 35 0 0 0 0 0 0 0 0 0 0 0 0 0 0 0 0 0 0 0 0 0 0 0 0 0 0 0 0 0 0 0 0 0 0 31 0 0 0 0 27 0 0 0 0 0 0 0 0 0 0 0 34 0 0 0 0 0 0 0 0 0 0 0 0 0 0 24 0 0 0 0 0 0 0 0 0 0 0 
		38 0 0 0 40 0 0 0 0 0 0 0 0 0 0 0 0 0 0 0 0 0 0 0 0 0 0 26 0 0 0 0 0 0 0 0 0 0 0 0 0 0 0 0 0 0 0 0 0 0 0 0 0 0 0 40 0 0 0 0 0 0 0 0 31 0 32 39 0 0 0 0 0 24 0 0 0 0 0 0 0 0 0 0 0 0 0 0 0 0 0 0 0 0 0 0 0 0 0 0 
		39 0 0 0 27 0 0 0 0 0 0 25 0 37 0 37 0 0 0 0 0 0 0 0 0 0 0 0 0 29 0 0 0 0 0 0 32 0 0 0 0 0 0 0 26 0 0 22 30 0 0 0 0 0 38 27 0 0 25 33 26 0 0 0 0 0 0 0 0 0 0 0 0 0 0 25 40 0 0 29 0 0 0 0 0 0 0 0 0 0 0 0 0 34 0 0 0 26 0 0 
		40 29 0 0 0 0 40 0 0 37 0 0 0 0 0 0 21 31 0 0 20 0 0 0 0 0 0 0 0 24 0 33 0 0 0 0 0 0 0 0 0 0 0 0 0 0 0 0 32 0 0 0 0 0 0 0 0 0 0 0 28 0 0 0 0 26 0 0 0 0 0 0 0 0 0 0 0 0 0 0 0 0 0 0 0 0 0 0 40 0 0 34 0 0 0 0 0 0 0 0 
		41 0 0 34 0 29 0 0 0 0 0 0 0 36 0 0 0 0 0 0 0 0 0 0 0 0 0 0 0 0 0 26 0 0 0 0 0 0 0 0 0 0 0 0 0 24 39 0 0 23 33 0 0 0 36 23 0 0 0 0 0 0 0 0 0 0 0 0 21 0 0 0 0 21 0 0 0 0 0 0 0 25 0 0 27 0 0 28 0 0 0 0 0 0 0 0 0 0 0 0 
		42 0 0 0 0 21 22 0 0 0 0 0 0 38 0 0 0 0 0 0 0 0 38 0 40 0 24 0 0 0 0 0 0 0 0 0 0 0 0 0 0 0 0 0 0 0 0 0 0 0 0 0 0 0 0 0 0 0 0 0 0 0 0 0 0 0 0 0 0 0 0 0 0 0 0 0 28 0 0 0 0 0 0 35 0 0 0 0 0 36 0 0 0 0 0 0 0 0 0 0 
		43 0 0 0 0 0 0 0 0 0 35 0 0 0 0 0 0 0 0 0 0 26 29 0 0 0 0 0 0 0 40 0 0 0 0 0 0 0 0 0 26 0 0 0 0 0 0 0 0 0 24 0 0 0 0 0 25 0 40 0 0 0 0 0 21 0 39 0 0 0 0 0 0 40 0 0 0 0 0 0 0 0 0 0 0 0 0 0 26 0 0 0 0 0 0 0 0 0 0 0 
		44 38 27 0 0 25 0 0 0 0 0 0 0 0 39 0 0 0 0 0 0 0 0 0 0 0 0 0 0 0 0 20 23 0 0 0 0 0 0 0 0 0 24 0 0 0 0 0 32 0 0 0 33 31 0 0 0 39 0 0 0 39 21 0 0 0 0 0 0 34 40 0 39 0 0 0 0 0 0 0 0 0 0 0 0 0 0 20 0 0 0 0 0 0 0 0 0 24 0 0 
		45 0 0 0 0 31 0 32 0 0 0 23 0 0 0 0 0 0 0 0 0 25 0 0 0 0 0 0 0 0 0 0 0 0 34 0 0 0 0 0 0 0 39 0 0 0 0 0 0 38 0 0 0 0 0 0 29 36 0 0 0 0 0 0 0 0 0 0 0 0 0 0 0 0 0 0 0 0 0 0 0 0 0 0 0 0 0 0 0 0 0 0 0 0 0 0 0 0 0 0 
		46 39 23 0 0 29 0 0 0 0 36 0 0 0 0 0 0 0 0 31 0 26 0 0 0 0 0 0 0 0 0 26 0 0 0 0 0 0 0 0 22 0 0 0 0 0 0 0 0 34 0 0 0 0 0 0 0 0 0 0 0 0 0 0 0 23 0 0 36 0 0 0 0 0 0 0 0 0 22 0 0 0 0 0 0 0 0 0 0 0 0 0 0 0 0 0 0 38 0 0 
		47 0 0 0 34 0 34 0 0 0 21 0 0 26 31 32 0 0 0 0 0 0 0 0 0 0 0 0 0 38 33 0 0 0 0 0 0 40 0 0 30 32 0 0 0 32 0 0 0 28 40 0 25 0 40 0 40 0 0 0 0 0 0 0 0 0 0 0 0 0 0 0 0 0 0 0 0 0 0 0 0 0 0 0 0 0 28 0 37 0 0 0 0 39 0 0 0 0 0 0 
		48 0 0 0 35 0 0 0 0 0 31 0 29 0 0 0 0 0 0 0 0 0 0 0 0 0 0 36 0 0 0 0 0 0 0 0 0 0 0 0 0 0 23 0 0 0 38 34 28 0 0 0 0 0 24 38 0 0 0 0 0 0 0 0 0 0 0 0 0 0 0 0 0 0 0 0 0 0 0 0 32 0 40 33 0 0 0 0 0 0 0 0 0 27 0 0 0 0 0 0 
		49 0 38 24 0 40 0 0 0 0 0 0 0 0 0 0 0 0 0 0 0 0 0 0 21 0 0 0 0 0 0 0 0 0 0 0 40 0 0 0 0 0 33 0 24 0 0 0 40 0 0 0 36 0 0 0 0 0 0 0 0 0 0 0 0 0 0 0 21 0 0 0 0 0 0 36 0 0 0 0 0 0 33 0 0 0 0 0 0 0 0 0 0 0 0 0 22 0 0 0 
		50 29 0 0 0 0 0 0 0 0 0 20 0 0 0 0 0 0 26 0 0 0 0 0 0 0 0 0 0 0 0 30 0 0 0 0 0 0 0 0 0 0 0 0 0 0 0 0 0 0 0 0 0 0 0 0 0 0 0 0 0 0 0 0 0 0 0 0 0 0 0 0 0 0 0 0 0 0 0 0 0 0 0 0 0 0 0 0 0 0 0 0 0 0 0 0 0 21 0 36 
		51 0 0 0 34 0 0 0 0 0 0 0 0 0 0 0 0 0 0 0 0 0 27 0 0 0 33 0 0 0 0 0 0 0 0 0 0 0 0 0 0 0 0 0 0 33 0 0 25 0 36 0 0 0 0 0 0 0 22 0 0 0 0 0 0 38 0 0 0 0 30 0 0 0 22 0 0 0 0 0 30 0 0 0 0 0 0 0 0 0 0 0 0 0 0 0 0 0 0 0 
		52 39 0 0 0 0 0 0 0 0 0 0 0 0 0 0 0 0 0 0 0 0 0 0 0 0 0 0 0 0 0 0 0 0 0 0 38 0 0 0 0 0 0 0 0 31 0 0 0 0 0 0 0 0 0 40 0 0 0 0 0 0 0 0 0 20 37 0 0 0 0 24 0 0 0 28 0 0 0 0 0 0 0 0 0 0 0 25 23 0 0 0 0 0 0 0 0 0 0 0 
		53 0 0 0 0 0 0 0 0 22 0 0 0 0 0 0 0 0 0 31 0 0 0 0 0 0 26 0 0 0 0 0 0 0 38 0 0 0 0 0 38 0 36 0 0 0 0 0 40 24 0 0 0 0 0 0 0 0 0 0 0 0 28 0 0 28 0 0 22 0 0 0 0 0 0 35 0 0 0 0 0 0 40 0 0 0 0 0 0 0 0 0 0 0 0 23 0 0 0 0 
		54 0 0 0 0 0 0 0 35 0 0 0 0 0 0 0 0 0 0 0 0 0 0 0 0 0 29 0 0 0 0 0 22 0 0 0 0 0 0 40 27 0 23 0 0 0 0 0 0 38 0 0 0 40 0 0 0 0 0 0 0 0 0 0 0 0 0 0 0 0 33 0 0 0 0 28 0 0 0 28 0 0 0 0 0 0 27 0 0 0 0 0 0 0 0 0 0 0 0 0 
		55 0 0 34 0 0 0 26 0 0 0 0 0 0 0 0 31 0 0 0 0 0 0 0 0 0 0 0 0 0 0 0 0 0 0 0 0 0 31 0 0 0 0 0 25 0 29 0 40 0 0 0 0 0 0 0 0 0 0 0 35 0 0 0 0 0 0 20 0 0 0 0 0 0 0 0 0 0 0 21 0 0 0 0 0 0 0 0 0 0 22 0 0 0 0 0 0 22 38 0 
		56 0 39 0 0 0 0 0 0 0 0 26 0 0 0 0 0 0 39 0 0 0 0 0 0 0 0 0 0 0 0 0 26 0 0 0 0 0 0 0 0 0 0 0 0 39 36 0 0 0 0 0 0 0 0 0 0 0 0 0 0 25 0 0 0 0 34 0 0 0 0 0 35 0 0 0 0 37 0 0 0 0 0 0 0 0 0 0 0 0 0 0 0 0 0 0 0 0 0 0 
		57 0 0 0 0 0 0 0 0 0 0 0 34 40 0 0 0 25 0 0 0 0 0 0 0 0 0 0 0 0 35 0 0 0 0 0 27 0 0 0 25 0 0 0 40 0 0 0 0 0 0 0 22 0 0 0 0 0 0 0 0 0 0 0 0 0 26 31 0 0 0 29 0 0 31 0 0 0 0 0 0 0 34 0 0 25 0 0 0 0 0 0 0 0 0 0 0 0 29 38 
		58 0 0 0 0 0 0 0 0 0 33 30 0 0 28 0 39 0 0 0 0 0 0 0 0 0 0 0 0 0 33 0 0 0 0 0 0 0 0 0 33 0 0 0 0 0 0 0 0 0 0 0 0 0 0 0 0 0 0 0 0 0 21 0 0 0 0 0 0 0 0 0 23 0 0 0 0 0 0 0 0 0 0 0 0 0 0 0 0 0 0 0 0 0 0 0 0 29 0 0 
		59 0 0 25 0 35 0 0 0 33 0 0 0 0 0 0 0 0 0 0 0 0 0 0 0 0 22 0 34 0 0 0 0 0 33 0 0 0 0 0 26 28 0 0 0 0 0 0 0 0 0 0 0 0 0 0 35 0 0 0 0 0 0 0 27 0 0 0 0 0 0 0 0 0 0 0 0 0 0 0 0 0 0 0 0 0 0 0 0 0 0 0 0 0 0 0 27 39 0 0 
		60 37 0 0 0 30 0 40 0 0 0 32 25 0 0 20 0 0 0 0 0 0 0 0 0 0 23 0 0 0 0 35 0 0 0 0 0 0 27 0 0 0 0 0 0 39 0 0 0 0 0 0 0 0 0 0 0 25 0 0 0 0 0 0 0 20 20 0 0 0 0 27 0 20 0 0 0 0 0 0 0 0 0 0 0 0 0 0 0 0 0 0 0 32 0 32 0 0 0 27 
		61 0 0 0 0 0 0 0 0 0 0 0 0 0 0 0 0 35 0 27 0 0 0 0 0 0 0 0 0 0 0 0 0 38 0 0 35 0 0 0 0 0 0 0 0 21 0 0 0 0 0 0 0 0 28 0 0 0 0 21 0 0 0 0 0 0 0 0 0 0 0 0 0 38 0 0 0 0 0 0 35 30 0 0 0 0 0 0 0 0 0 0 0 0 0 0 33 0 0 0 
		62 0 0 0 0 0 0 0 0 0 0 30 0 0 0 0 0 0 0 21 27 0 0 0 0 0 0 0 0 0 0 0 25 0 0 0 20 29 0 0 0 0 0 0 0 0 0 0 0 0 0 0 0 0 0 0 0 0 0 0 0 0 0 0 0 0 0 0 0 0 0 0 23 0 0 0 0 0 27 0 0 0 0 0 0 0 0 0 0 0 0 0 0 0 0 26 30 0 0 0 
		63 0 0 0 0 0 0 0 0 0 0 0 0 0 0 0 0 0 0 0 0 0 38 0 0 0 0 25 0 0 23 0 0 32 0 25 0 0 0 31 0 0 0 0 21 0 0 0 0 0 0 0 0 0 0 0 0 0 0 0 27 0 0 0 0 0 0 39 0 0 0 0 0 0 0 0 0 0 0 0 0 0 0 0 0 0 0 0 0 0 0 0 0 0 0 0 0 0 0 0 
		64 0 0 0 0 0 0 0 32 0 0 0 0 40 0 0 0 0 0 0 0 0 0 0 0 0 0 0 0 30 34 0 0 22 0 0 0 0 0 0 0 26 0 0 0 0 0 23 0 0 0 0 38 20 28 0 0 0 0 0 0 20 0 0 0 0 0 0 0 0 0 0 0 0 0 0 0 0 0 0 0 0 0 0 0 0 0 0 0 0 0 0 20 0 0 0 0 0 0 0 
		65 0 0 0 30 0 0 0 0 0 0 0 0 0 0 0 0 0 0 0 0 0 0 0 0 0 0 0 0 0 0 0 28 40 0 0 38 0 0 32 0 0 0 0 39 0 0 0 0 0 0 0 0 37 0 0 0 34 26 0 0 20 0 0 0 0 0 0 0 0 0 0 0 0 26 0 0 0 0 0 23 0 20 0 0 0 0 23 0 0 0 0 0 0 0 0 0 0 33 31 
		66 0 0 0 24 0 29 0 0 0 0 0 0 0 0 0 0 0 0 0 0 28 0 26 0 0 0 0 27 0 0 0 0 0 39 0 0 0 0 39 0 0 0 0 0 0 0 0 0 0 0 0 0 0 0 0 20 0 31 0 0 0 0 0 39 0 0 0 20 0 20 0 0 0 0 0 0 0 0 0 0 20 0 0 23 0 0 0 0 0 0 40 0 0 0 0 0 0 31 0 
		67 0 0 0 0 0 0 0 0 0 0 0 0 0 0 0 0 0 0 0 0 0 0 0 0 0 0 0 0 0 0 0 0 0 0 0 0 0 0 0 0 0 21 0 0 0 0 36 0 0 21 0 0 0 22 0 0 0 0 0 0 0 0 0 0 0 0 20 0 0 39 0 0 0 0 0 0 0 0 0 0 0 0 0 0 23 0 0 0 0 0 0 0 23 0 0 0 0 0 0 
		68 37 0 29 0 0 0 0 0 0 0 0 0 0 0 0 0 0 0 0 35 0 0 0 0 0 0 0 0 0 0 28 24 0 0 39 0 0 0 0 0 0 0 0 0 34 0 0 0 0 0 0 0 0 0 0 0 0 0 0 0 0 0 0 0 0 0 0 0 0 0 0 0 0 34 20 0 0 33 0 0 0 0 0 0 0 0 0 0 0 24 0 0 0 0 0 0 38 29 20 
		69 33 22 0 37 0 0 0 0 0 0 0 0 0 0 0 0 0 0 0 0 38 0 0 0 0 0 0 0 0 0 0 0 0 0 0 0 0 0 0 0 0 0 0 0 40 0 0 0 0 0 0 30 0 0 33 0 0 0 0 0 0 0 0 0 0 0 20 39 0 0 0 0 0 0 29 0 0 0 0 0 0 33 0 0 38 0 0 38 0 0 0 36 0 0 0 0 0 33 31 
		70 0 0 0 0 0 0 0 0 0 0 0 0 0 0 0 0 0 0 0 0 0 0 0 0 0 0 0 0 0 0 0 0 0 0 0 0 0 0 0 0 0 0 0 0 0 0 0 0 0 0 0 0 24 0 0 0 0 29 0 0 27 0 0 0 0 0 0 0 0 0 0 0 0 0 0 0 0 0 0 0 0 0 0 0 24 0 0 0 0 0 0 0 0 0 0 0 0 0 0 
		71 28 0 23 0 39 0 0 0 0 0 0 0 0 0 0 0 0 0 0 0 0 0 0 28 0 0 0 0 32 0 0 0 0 0 0 0 33 0 0 0 0 0 0 0 39 0 0 0 0 0 0 0 0 0 0 0 35 0 23 0 0 0 23 0 0 0 0 0 0 0 0 0 0 0 0 0 0 0 0 0 0 0 0 0 0 0 0 0 0 0 0 0 0 0 0 0 0 0 0 
		72 0 0 0 0 0 0 0 0 29 0 0 0 0 0 0 0 0 0 0 0 0 0 0 0 0 0 0 0 22 0 0 0 0 0 0 0 0 34 24 0 0 21 0 40 0 0 0 0 0 0 0 0 0 0 0 0 0 0 0 0 20 38 0 0 0 0 0 0 0 0 0 0 0 40 0 28 0 0 35 0 0 0 0 0 0 0 30 0 0 20 23 0 0 0 39 0 0 0 0 
		73 36 0 0 0 0 0 0 0 0 0 0 0 0 0 0 0 0 0 0 0 0 0 0 0 0 39 0 0 0 0 0 0 0 0 0 0 23 0 0 0 0 0 0 0 0 0 0 0 0 0 0 22 0 0 0 0 0 31 0 0 0 0 0 0 0 26 0 0 34 0 0 0 40 0 25 0 40 0 0 0 0 0 0 0 0 0 0 0 0 28 0 0 0 0 0 0 0 0 0 
		74 0 0 0 0 0 0 0 37 0 0 0 30 0 0 0 0 0 0 0 0 0 0 0 0 0 0 34 0 0 0 0 0 0 0 0 0 0 0 0 25 0 0 0 0 0 0 0 0 0 36 0 0 28 35 28 0 0 0 0 0 0 0 0 0 0 0 0 0 20 29 0 0 0 25 0 0 0 0 0 0 0 0 0 0 39 0 0 0 0 0 0 0 0 0 35 0 0 0 0 
		75 0 0 0 0 0 0 0 0 0 0 0 30 0 0 0 0 0 0 0 0 0 21 0 0 0 0 0 0 0 0 0 0 0 0 0 0 0 0 0 40 0 0 28 0 0 0 0 0 0 0 0 0 0 0 0 0 0 0 0 0 0 0 0 0 0 0 0 0 0 0 0 0 28 0 0 0 0 0 0 0 0 0 0 0 0 0 0 40 0 0 0 0 0 0 0 0 20 0 0 
		76 0 0 0 0 0 0 0 0 0 0 21 0 0 0 0 0 0 0 35 27 0 0 0 30 0 0 27 0 0 0 0 32 37 0 0 36 0 0 0 0 0 0 0 0 0 0 0 0 0 0 0 0 0 0 0 0 37 0 0 0 0 0 0 0 0 0 0 0 0 0 0 0 0 40 0 0 0 0 0 0 0 0 0 0 0 0 0 0 0 0 0 0 0 0 0 0 0 0 0 
		77 0 0 0 0 0 0 0 0 0 38 0 0 0 0 0 0 0 0 0 0 0 0 0 0 0 0 0 0 0 0 0 0 0 0 0 20 0 0 0 0 0 0 0 0 0 0 22 0 0 0 0 0 0 0 0 0 0 0 0 0 0 0 27 0 0 0 0 0 33 0 0 0 0 0 0 0 0 0 0 0 0 0 0 0 0 0 0 34 26 0 0 0 0 0 0 0 0 0 0 
		78 0 0 0 0 35 0 0 0 32 0 0 0 0 0 0 0 0 0 0 0 0 0 0 0 38 0 0 0 0 0 0 0 0 0 0 0 0 0 0 29 0 0 0 0 0 0 0 0 0 0 0 0 0 0 28 21 0 0 0 0 0 0 0 0 0 0 0 0 0 0 0 0 35 0 0 0 0 0 0 0 0 0 0 0 0 0 0 0 0 0 0 0 0 0 0 0 0 0 0 
		79 0 0 0 0 0 0 0 37 0 0 0 0 0 0 0 0 0 0 0 0 0 0 0 0 0 0 0 0 0 0 0 0 0 0 0 0 0 0 0 0 0 0 0 0 0 0 0 0 32 0 0 30 0 0 0 0 0 0 0 0 0 35 0 0 0 23 0 0 0 0 0 0 0 0 0 0 0 0 0 0 0 0 0 0 0 0 0 33 0 0 0 0 0 0 0 0 0 20 0 
		80 0 0 0 0 0 0 0 0 0 0 0 0 0 0 0 0 0 0 0 0 0 0 0 0 0 0 0 37 0 0 0 0 0 0 22 0 0 0 0 0 0 25 0 0 0 0 0 0 0 0 0 0 0 0 0 0 0 0 0 0 0 30 0 0 0 0 20 0 0 0 0 0 0 0 0 0 0 0 0 0 0 0 0 0 0 0 0 0 0 0 0 0 0 0 0 0 0 0 0 
		81 0 0 0 0 0 0 0 21 0 0 0 0 0 0 0 0 0 0 0 0 0 0 0 0 0 0 0 0 0 0 0 0 0 0 0 0 0 0 0 0 0 0 0 0 0 0 0 0 40 33 0 0 0 40 0 0 0 34 0 0 0 0 0 0 0 20 0 0 0 33 0 0 0 0 0 0 0 0 0 0 0 0 0 0 0 0 0 0 0 0 0 0 0 0 0 0 0 24 0 
		82 0 0 0 0 0 0 0 0 0 0 0 0 0 0 0 0 0 0 0 0 0 0 0 0 0 0 0 22 30 29 0 0 0 0 0 0 0 0 0 0 0 0 35 0 0 0 0 0 33 0 0 0 0 0 0 0 0 0 0 0 0 0 0 0 0 0 0 0 0 0 0 0 0 0 0 0 0 0 0 0 0 0 0 0 0 0 0 0 0 0 0 0 24 0 0 0 0 0 0 
		83 0 0 35 0 0 0 0 0 0 0 0 0 24 0 0 0 0 0 0 0 0 0 0 27 0 0 0 0 0 0 0 0 38 32 0 0 40 0 0 0 0 27 0 0 0 0 0 0 0 0 0 0 0 0 0 0 0 0 0 0 0 0 0 0 0 0 23 0 0 0 0 0 0 0 0 0 0 0 0 0 0 0 0 0 0 0 0 0 0 0 0 0 34 0 33 0 0 0 32 
		84 0 0 0 26 0 0 0 24 0 0 0 0 0 0 0 0 0 0 0 0 0 0 0 0 24 39 26 0 0 0 0 0 0 0 0 0 0 0 0 0 0 0 0 0 0 0 0 0 0 0 0 0 0 0 0 0 0 25 0 0 0 0 0 0 0 0 0 23 0 38 24 0 0 0 39 0 0 0 0 0 0 0 0 0 0 0 0 0 0 0 0 0 0 0 0 26 0 0 0 
		85 0 0 20 0 0 0 36 0 0 0 0 0 0 0 24 0 0 0 0 0 0 0 0 0 0 0 0 0 0 0 0 0 0 0 0 0 0 0 0 0 0 0 0 0 0 0 0 28 0 0 0 0 0 0 27 0 0 0 0 0 0 0 0 0 0 0 0 0 0 0 0 0 0 0 0 0 0 0 0 0 0 0 0 0 0 0 0 0 0 0 0 0 0 36 0 0 0 0 0 
		86 0 0 35 0 0 40 0 0 0 32 0 0 0 0 0 20 0 25 26 0 0 0 0 0 0 0 0 0 0 0 0 0 40 0 0 40 0 0 0 0 0 28 0 0 20 0 0 0 0 0 0 0 25 0 0 0 0 0 0 0 0 0 0 0 0 23 0 0 0 0 0 0 30 0 0 0 0 0 0 0 0 0 0 0 0 0 0 0 0 0 0 0 0 0 0 0 28 0 31 
		87 0 22 0 0 0 21 39 27 0 24 0 0 0 0 0 29 23 0 0 0 0 0 0 0 0 23 0 0 33 0 0 0 0 26 0 0 0 24 0 0 40 0 0 26 0 0 0 37 0 0 0 0 23 0 0 0 0 0 0 0 0 0 0 0 0 0 0 0 0 38 0 0 0 0 0 40 0 34 0 33 0 0 0 0 0 0 0 0 0 0 0 0 0 0 0 0 0 0 39 
		88 0 0 0 24 0 0 40 0 26 0 0 0 0 0 21 24 0 0 0 0 0 0 0 0 0 0 0 0 0 0 0 0 0 0 0 0 0 0 0 0 0 0 36 0 0 0 0 0 0 0 0 0 0 0 0 0 0 0 0 0 0 0 0 0 0 0 0 0 0 0 0 0 0 0 0 0 0 26 0 0 0 0 0 0 0 0 0 0 0 0 0 0 0 0 0 0 0 0 0 
		89 0 0 0 0 0 0 37 0 22 40 0 0 25 38 0 0 0 0 0 0 30 0 0 0 0 0 0 0 34 0 0 0 0 0 0 0 0 0 0 0 0 0 0 0 0 0 0 0 0 0 0 0 0 0 0 22 0 0 0 0 0 0 0 0 0 0 0 0 24 0 0 0 20 28 0 0 0 0 0 0 0 0 0 0 0 0 0 0 0 0 24 0 0 0 0 0 0 0 0 
		90 0 0 0 0 0 0 0 0 0 0 0 0 0 0 0 0 0 0 0 0 0 0 0 0 0 0 0 0 0 0 26 0 0 35 0 0 0 0 0 0 34 0 0 0 0 0 0 0 0 0 0 0 0 0 0 0 0 0 0 0 0 0 0 0 0 0 40 0 0 0 0 0 23 0 0 0 0 0 0 0 0 0 0 0 0 0 0 0 0 24 0 0 0 0 32 0 0 0 0 
		91 0 0 0 0 0 23 0 0 0 0 0 0 0 0 0 0 0 0 0 0 0 0 0 0 0 0 0 0 0 0 0 0 0 0 0 0 0 0 0 0 0 0 0 0 0 0 0 0 0 0 0 0 0 0 0 0 0 0 0 0 0 0 0 0 20 0 0 0 0 36 0 0 0 0 0 0 0 0 0 0 0 0 0 0 0 0 0 0 0 0 0 0 0 0 0 0 0 0 0 
		92 0 0 38 0 0 0 0 0 0 0 0 0 0 0 0 0 34 0 0 0 0 30 0 0 0 0 31 0 22 25 0 33 0 0 0 0 0 0 0 34 0 0 0 0 0 0 0 39 27 0 0 0 0 0 0 0 0 0 0 0 32 0 0 0 0 0 0 23 0 0 0 0 0 0 0 0 0 0 0 0 0 0 24 34 0 0 0 0 0 0 0 0 0 0 0 0 0 0 0 
		93 0 0 0 0 0 0 0 0 0 37 0 0 0 0 29 0 0 0 32 27 0 0 0 0 0 0 0 0 0 0 0 0 0 30 0 0 0 0 0 0 0 0 0 0 0 0 0 0 0 0 0 0 0 0 0 0 0 0 0 0 0 0 0 0 0 0 0 0 0 0 0 0 0 0 0 0 0 0 0 0 0 0 0 0 0 36 0 0 0 0 0 0 0 0 0 0 0 0 0 
		94 35 0 0 0 25 0 0 0 0 0 0 0 0 0 0 0 0 0 26 0 0 0 0 0 0 0 0 0 0 0 0 0 0 0 0 0 0 0 0 0 0 0 0 0 0 0 0 0 0 0 0 0 0 23 0 0 0 0 0 0 32 0 26 0 0 0 0 0 0 0 0 0 39 0 35 0 0 0 0 0 0 0 0 33 0 0 0 0 0 0 32 0 0 0 0 0 0 0 0 
		95 0 0 0 0 0 0 0 0 0 27 0 0 0 0 0 0 32 0 0 0 0 0 0 0 0 0 0 0 22 0 0 0 0 0 40 0 21 0 0 0 0 0 0 0 0 0 0 0 0 22 0 0 0 0 0 0 0 0 0 27 0 33 30 0 0 0 0 0 0 0 0 0 0 0 0 0 0 0 0 0 0 0 0 0 26 0 0 0 0 0 0 0 0 0 0 0 0 0 0 
		96 21 0 0 0 0 0 0 0 20 0 0 0 0 34 20 0 0 20 37 0 0 0 0 25 0 0 0 0 36 0 0 0 0 0 0 0 0 0 0 26 0 0 0 0 24 0 38 0 0 0 21 0 0 0 0 22 0 0 29 39 0 0 0 0 0 0 0 0 38 0 0 0 0 0 0 20 0 0 0 0 0 0 0 0 0 0 28 0 0 0 0 0 0 0 0 0 0 0 0 
		97 0 0 0 0 0 0 0 23 0 0 0 0 0 0 0 0 0 0 0 0 0 0 0 0 0 0 0 0 0 30 0 0 0 0 0 0 0 0 0 0 0 0 0 0 0 0 0 0 0 0 0 0 0 0 0 38 0 29 0 0 0 0 0 0 0 33 31 0 29 33 0 0 0 0 0 0 0 0 0 20 0 24 0 0 0 0 0 0 0 0 0 0 0 0 0 0 0 0 0 
		98 0 0 0 0 27 0 0 0 0 32 0 0 0 0 0 0 0 0 0 0 0 29 0 35 0 32 0 0 20 0 0 0 0 0 0 0 0 0 0 0 0 0 0 0 0 0 0 0 0 0 36 0 0 0 0 0 0 38 0 0 27 0 0 0 0 31 0 0 20 31 0 0 0 0 0 0 0 0 0 0 0 0 0 32 0 0 31 39 0 0 0 0 0 0 0 0 0 0 0 
;
